18
Naphthalene - Singlet Optimized / B3LYP/DZ(d) E= -385.917487967 d2h
C -1.247231 -1.408472 0.000000
C -2.442246 -0.711801 0.000000
C -2.442246 0.711801 0.000000
C -1.247231 1.408472 0.000000
C 0.000000 0.717709 0.000000
C 0.000000 -0.717709 0.000000
C 1.247231 -1.408472 0.000000
C 2.442246 -0.711801 0.000000
C 2.442246 0.711801 0.000000
C 1.247231 1.408472 0.000000
H -1.245160 -2.498925 0.000000
H -3.389646 -1.249013 0.000000
H -3.389646 1.249013 0.000000
H -1.245160 2.498925 0.000000
H 1.245160 -2.498925 0.000000
H 3.389646 -1.249013 0.000000
H 3.389646 1.249013 0.000000
H 1.245160 2.498925 0.000000