18
Naphthalene - Triplet Optimized / B3LYP/DZ(d) E= -385.819586235 d2h
C -1.240990 -1.407165 0.000000
C -2.495729 -0.685584 0.000000
C -2.495729 0.685584 0.000000
C -1.240990 1.407165 0.000000
C 0.000000 0.725834 0.000000
C 0.000000 -0.725834 0.000000
C 1.240990 -1.407165 0.000000
C 2.495729 -0.685584 0.000000
C 2.495729 0.685584 0.000000
C 1.240990 1.407165 0.000000
H -1.248476 -2.496836 0.000000
H -3.431212 -1.242408 0.000000
H -3.431212 1.242408 0.000000
H -1.248476 2.496836 0.000000
H 1.248476 -2.496836 0.000000
H 3.431212 -1.242408 0.000000
H 3.431212 1.242408 0.000000
H 1.248476 2.496836 0.000000