14
hexatriene, monomer singlet, B3LYP/6-31G*
C 3.0741495329 -0.1910538324 0.0000000000
C 1.8711538258 0.4061635395 0.0000000000
C 0.6054018079 -0.3010113026 0.0000000000
C -0.6054020065 0.3010130958 0.0000000000
C -1.8711531714 -0.4061633244 0.0000000000
C -3.0741500101 0.1910517051 0.0000000000
H 3.9958173371 0.3821364758 0.0000000000
H 3.1726560502 -1.2743836894 0.0000000000
H 1.8177920633 1.4955067795 0.0000000000
H 0.6541456244 -1.3908883400 0.0000000000
H -0.6541465477 1.3908901154 0.0000000000
H -1.8177894436 -1.4955064679 0.0000000000
H -3.1726587972 1.2743813282 0.0000000000
H -3.9958165832 -0.3821405827 0.0000000000